c Reduced graph for r17_0 generated by Cyril Grelier
p edge 213 2392
e 1 2
e 1 3
e 1 4
e 1 5
e 1 6
e 1 11
e 1 14
e 1 15
e 1 16
e 1 17
e 1 18
e 1 37
e 1 38
e 1 39
e 1 42
e 1 45
e 1 46
e 1 55
e 1 56
e 1 58
e 1 62
e 1 71
e 1 81
e 1 86
e 1 114
e 1 135
e 1 157
e 1 167
e 2 3
e 2 4
e 2 7
e 2 8
e 2 11
e 2 19
e 2 20
e 2 21
e 2 22
e 2 23
e 2 39
e 2 40
e 2 41
e 2 42
e 2 45
e 2 46
e 2 58
e 2 59
e 2 60
e 2 61
e 2 62
e 2 71
e 2 86
e 2 89
e 2 114
e 2 147
e 2 167
e 3 4
e 3 9
e 3 10
e 3 11
e 3 24
e 3 25
e 3 26
e 3 27
e 3 28
e 3 29
e 3 39
e 3 42
e 3 43
e 3 44
e 3 45
e 3 46
e 3 58
e 3 62
e 3 64
e 3 65
e 3 66
e 3 71
e 3 86
e 3 114
e 3 167
e 3 178
e 4 11
e 4 12
e 4 13
e 4 32
e 4 33
e 4 34
e 4 35
e 4 36
e 4 39
e 4 42
e 4 45
e 4 46
e 4 52
e 4 58
e 4 62
e 4 71
e 4 73
e 4 74
e 4 75
e 4 86
e 4 106
e 4 114
e 4 154
e 4 167
e 4 185
e 5 6
e 5 7
e 5 9
e 5 12
e 5 14
e 5 15
e 5 16
e 5 17
e 5 18
e 5 30
e 5 37
e 5 38
e 5 53
e 5 55
e 5 56
e 5 67
e 5 69
e 5 81
e 5 87
e 5 90
e 5 103
e 5 111
e 5 112
e 5 135
e 5 145
e 5 157
e 6 8
e 6 10
e 6 13
e 6 14
e 6 15
e 6 16
e 6 17
e 6 18
e 6 31
e 6 37
e 6 38
e 6 54
e 6 55
e 6 56
e 6 57
e 6 63
e 6 68
e 6 70
e 6 81
e 6 88
e 6 91
e 6 113
e 6 135
e 6 146
e 6 157
e 7 8
e 7 9
e 7 12
e 7 19
e 7 20
e 7 21
e 7 22
e 7 23
e 7 30
e 7 40
e 7 41
e 7 53
e 7 59
e 7 60
e 7 61
e 7 67
e 7 69
e 7 87
e 7 89
e 7 90
e 7 103
e 7 111
e 7 112
e 7 145
e 7 147
e 8 10
e 8 13
e 8 19
e 8 20
e 8 21
e 8 22
e 8 23
e 8 31
e 8 40
e 8 41
e 8 54
e 8 57
e 8 59
e 8 60
e 8 61
e 8 63
e 8 68
e 8 70
e 8 88
e 8 89
e 8 91
e 8 113
e 8 146
e 8 147
e 9 10
e 9 12
e 9 24
e 9 25
e 9 26
e 9 27
e 9 28
e 9 29
e 9 30
e 9 43
e 9 44
e 9 53
e 9 64
e 9 65
e 9 66
e 9 67
e 9 69
e 9 87
e 9 90
e 9 103
e 9 111
e 9 112
e 9 145
e 9 178
e 10 13
e 10 24
e 10 25
e 10 26
e 10 27
e 10 28
e 10 29
e 10 31
e 10 43
e 10 44
e 10 54
e 10 57
e 10 63
e 10 64
e 10 65
e 10 66
e 10 68
e 10 70
e 10 88
e 10 91
e 10 113
e 10 146
e 10 178
e 11 30
e 11 31
e 11 39
e 11 42
e 11 45
e 11 46
e 11 47
e 11 48
e 11 49
e 11 50
e 11 51
e 11 58
e 11 62
e 11 71
e 11 72
e 11 86
e 11 104
e 11 105
e 11 114
e 11 133
e 11 167
e 11 184
e 11 195
e 12 13
e 12 30
e 12 32
e 12 33
e 12 34
e 12 35
e 12 36
e 12 52
e 12 53
e 12 67
e 12 69
e 12 73
e 12 74
e 12 75
e 12 87
e 12 90
e 12 103
e 12 106
e 12 111
e 12 112
e 12 145
e 12 154
e 12 185
e 13 31
e 13 32
e 13 33
e 13 34
e 13 35
e 13 36
e 13 52
e 13 54
e 13 57
e 13 63
e 13 68
e 13 70
e 13 73
e 13 74
e 13 75
e 13 88
e 13 91
e 13 106
e 13 113
e 13 146
e 13 154
e 13 185
e 14 15
e 14 16
e 14 17
e 14 18
e 14 20
e 14 25
e 14 37
e 14 38
e 14 47
e 14 55
e 14 56
e 14 77
e 14 81
e 14 83
e 14 97
e 14 116
e 14 120
e 14 129
e 14 135
e 14 138
e 14 141
e 14 157
e 14 169
e 15 16
e 15 17
e 15 18
e 15 21
e 15 26
e 15 33
e 15 37
e 15 38
e 15 48
e 15 55
e 15 56
e 15 81
e 15 84
e 15 93
e 15 98
e 15 99
e 15 130
e 15 135
e 15 139
e 15 157
e 15 162
e 15 170
e 16 17
e 16 18
e 16 22
e 16 27
e 16 34
e 16 37
e 16 38
e 16 49
e 16 55
e 16 56
e 16 78
e 16 81
e 16 94
e 16 100
e 16 117
e 16 131
e 16 135
e 16 140
e 16 142
e 16 157
e 16 202
e 17 18
e 17 23
e 17 28
e 17 35
e 17 37
e 17 38
e 17 50
e 17 55
e 17 56
e 17 79
e 17 81
e 17 101
e 17 118
e 17 121
e 17 132
e 17 135
e 17 157
e 17 163
e 17 171
e 17 203
e 18 29
e 18 36
e 18 37
e 18 38
e 18 51
e 18 55
e 18 56
e 18 80
e 18 81
e 18 85
e 18 95
e 18 102
e 18 122
e 18 135
e 18 143
e 18 157
e 18 164
e 18 172
e 18 204
e 19 20
e 19 21
e 19 22
e 19 23
e 19 24
e 19 32
e 19 40
e 19 41
e 19 59
e 19 60
e 19 61
e 19 76
e 19 82
e 19 89
e 19 92
e 19 96
e 19 115
e 19 119
e 19 128
e 19 137
e 19 147
e 19 168
e 19 201
e 20 21
e 20 22
e 20 23
e 20 25
e 20 40
e 20 41
e 20 47
e 20 59
e 20 60
e 20 61
e 20 77
e 20 83
e 20 89
e 20 97
e 20 116
e 20 120
e 20 129
e 20 138
e 20 141
e 20 147
e 20 169
e 21 22
e 21 23
e 21 26
e 21 33
e 21 40
e 21 41
e 21 48
e 21 59
e 21 60
e 21 61
e 21 84
e 21 89
e 21 93
e 21 98
e 21 99
e 21 130
e 21 139
e 21 147
e 21 162
e 21 170
e 22 23
e 22 27
e 22 34
e 22 40
e 22 41
e 22 49
e 22 59
e 22 60
e 22 61
e 22 78
e 22 89
e 22 94
e 22 100
e 22 117
e 22 131
e 22 140
e 22 142
e 22 147
e 22 202
e 23 28
e 23 35
e 23 40
e 23 41
e 23 50
e 23 59
e 23 60
e 23 61
e 23 79
e 23 89
e 23 101
e 23 118
e 23 121
e 23 132
e 23 147
e 23 163
e 23 171
e 23 203
e 24 25
e 24 26
e 24 27
e 24 28
e 24 29
e 24 32
e 24 43
e 24 44
e 24 64
e 24 65
e 24 66
e 24 76
e 24 82
e 24 92
e 24 96
e 24 115
e 24 119
e 24 128
e 24 137
e 24 168
e 24 178
e 24 201
e 25 26
e 25 27
e 25 28
e 25 29
e 25 43
e 25 44
e 25 47
e 25 64
e 25 65
e 25 66
e 25 77
e 25 83
e 25 97
e 25 116
e 25 120
e 25 129
e 25 138
e 25 141
e 25 169
e 25 178
e 26 27
e 26 28
e 26 29
e 26 33
e 26 43
e 26 44
e 26 48
e 26 64
e 26 65
e 26 66
e 26 84
e 26 93
e 26 98
e 26 99
e 26 130
e 26 139
e 26 162
e 26 170
e 26 178
e 27 28
e 27 29
e 27 34
e 27 43
e 27 44
e 27 49
e 27 64
e 27 65
e 27 66
e 27 78
e 27 94
e 27 100
e 27 117
e 27 131
e 27 140
e 27 142
e 27 178
e 27 202
e 28 29
e 28 35
e 28 43
e 28 44
e 28 50
e 28 64
e 28 65
e 28 66
e 28 79
e 28 101
e 28 118
e 28 121
e 28 132
e 28 163
e 28 171
e 28 178
e 28 203
e 29 36
e 29 43
e 29 44
e 29 51
e 29 64
e 29 65
e 29 66
e 29 80
e 29 85
e 29 95
e 29 102
e 29 122
e 29 143
e 29 164
e 29 172
e 29 178
e 29 204
e 30 31
e 30 47
e 30 48
e 30 49
e 30 50
e 30 51
e 30 53
e 30 67
e 30 69
e 30 72
e 30 87
e 30 90
e 30 103
e 30 104
e 30 105
e 30 111
e 30 112
e 30 133
e 30 145
e 30 184
e 30 195
e 31 47
e 31 48
e 31 49
e 31 50
e 31 51
e 31 54
e 31 57
e 31 63
e 31 68
e 31 70
e 31 72
e 31 88
e 31 91
e 31 104
e 31 105
e 31 113
e 31 133
e 31 146
e 31 184
e 31 195
e 32 33
e 32 34
e 32 35
e 32 36
e 32 52
e 32 73
e 32 74
e 32 75
e 32 76
e 32 82
e 32 92
e 32 96
e 32 106
e 32 115
e 32 119
e 32 128
e 32 137
e 32 154
e 32 168
e 32 185
e 32 201
e 33 34
e 33 35
e 33 36
e 33 48
e 33 52
e 33 73
e 33 74
e 33 75
e 33 84
e 33 93
e 33 98
e 33 99
e 33 106
e 33 130
e 33 139
e 33 154
e 33 162
e 33 170
e 33 185
e 34 35
e 34 36
e 34 49
e 34 52
e 34 73
e 34 74
e 34 75
e 34 78
e 34 94
e 34 100
e 34 106
e 34 117
e 34 131
e 34 140
e 34 142
e 34 154
e 34 185
e 34 202
e 35 36
e 35 50
e 35 52
e 35 73
e 35 74
e 35 75
e 35 79
e 35 101
e 35 106
e 35 118
e 35 121
e 35 132
e 35 154
e 35 163
e 35 171
e 35 185
e 35 203
e 36 51
e 36 52
e 36 73
e 36 74
e 36 75
e 36 80
e 36 85
e 36 95
e 36 102
e 36 106
e 36 122
e 36 143
e 36 154
e 36 164
e 36 172
e 36 185
e 36 204
e 37 38
e 37 40
e 37 43
e 37 55
e 37 56
e 37 81
e 37 107
e 37 109
e 37 123
e 37 124
e 37 126
e 37 135
e 37 144
e 37 157
e 37 160
e 37 189
e 37 192
e 38 41
e 38 44
e 38 52
e 38 55
e 38 56
e 38 72
e 38 81
e 38 108
e 38 110
e 38 125
e 38 127
e 38 135
e 38 153
e 38 157
e 38 161
e 38 190
e 39 42
e 39 45
e 39 46
e 39 57
e 39 58
e 39 62
e 39 71
e 39 82
e 39 83
e 39 84
e 39 85
e 39 86
e 39 109
e 39 110
e 39 114
e 39 136
e 39 158
e 39 159
e 39 167
e 39 197
e 40 41
e 40 43
e 40 59
e 40 60
e 40 61
e 40 89
e 40 107
e 40 109
e 40 123
e 40 124
e 40 126
e 40 144
e 40 147
e 40 160
e 40 189
e 40 192
e 41 44
e 41 52
e 41 59
e 41 60
e 41 61
e 41 72
e 41 89
e 41 108
e 41 110
e 41 125
e 41 127
e 41 147
e 41 153
e 41 161
e 41 190
e 42 45
e 42 46
e 42 58
e 42 62
e 42 63
e 42 71
e 42 86
e 42 92
e 42 93
e 42 94
e 42 95
e 42 114
e 42 123
e 42 148
e 42 149
e 42 167
e 42 176
e 42 177
e 42 207
e 43 44
e 43 64
e 43 65
e 43 66
e 43 107
e 43 109
e 43 123
e 43 124
e 43 126
e 43 144
e 43 160
e 43 178
e 43 189
e 43 192
e 44 52
e 44 64
e 44 65
e 44 66
e 44 72
e 44 108
e 44 110
e 44 125
e 44 127
e 44 153
e 44 161
e 44 178
e 44 190
e 45 46
e 45 58
e 45 62
e 45 67
e 45 68
e 45 71
e 45 86
e 45 96
e 45 97
e 45 98
e 45 114
e 45 124
e 45 125
e 45 150
e 45 167
e 45 179
e 45 180
e 45 208
e 46 58
e 46 62
e 46 69
e 46 70
e 46 71
e 46 86
e 46 99
e 46 100
e 46 101
e 46 102
e 46 114
e 46 126
e 46 127
e 46 151
e 46 152
e 46 167
e 46 181
e 47 48
e 47 49
e 47 50
e 47 51
e 47 72
e 47 77
e 47 83
e 47 97
e 47 104
e 47 105
e 47 116
e 47 120
e 47 129
e 47 133
e 47 138
e 47 141
e 47 169
e 47 184
e 47 195
e 48 49
e 48 50
e 48 51
e 48 72
e 48 84
e 48 93
e 48 98
e 48 99
e 48 104
e 48 105
e 48 130
e 48 133
e 48 139
e 48 162
e 48 170
e 48 184
e 48 195
e 49 50
e 49 51
e 49 72
e 49 78
e 49 94
e 49 100
e 49 104
e 49 105
e 49 117
e 49 131
e 49 133
e 49 140
e 49 142
e 49 184
e 49 195
e 49 202
e 50 51
e 50 72
e 50 79
e 50 101
e 50 104
e 50 105
e 50 118
e 50 121
e 50 132
e 50 133
e 50 163
e 50 171
e 50 184
e 50 195
e 50 203
e 51 72
e 51 80
e 51 85
e 51 95
e 51 102
e 51 104
e 51 105
e 51 122
e 51 133
e 51 143
e 51 164
e 51 172
e 51 184
e 51 195
e 51 204
e 52 72
e 52 73
e 52 74
e 52 75
e 52 106
e 52 108
e 52 110
e 52 125
e 52 127
e 52 153
e 52 154
e 52 161
e 52 185
e 52 190
e 53 54
e 53 67
e 53 69
e 53 76
e 53 77
e 53 78
e 53 79
e 53 80
e 53 87
e 53 90
e 53 103
e 53 107
e 53 108
e 53 111
e 53 112
e 53 134
e 53 145
e 53 155
e 53 156
e 53 196
e 54 57
e 54 63
e 54 68
e 54 70
e 54 76
e 54 77
e 54 78
e 54 79
e 54 80
e 54 88
e 54 91
e 54 107
e 54 108
e 54 113
e 54 134
e 54 146
e 54 155
e 54 156
e 54 196
e 55 56
e 55 59
e 55 64
e 55 73
e 55 81
e 55 135
e 55 151
e 55 157
e 55 165
e 55 173
e 55 182
e 55 186
e 55 187
e 55 200
e 56 60
e 56 65
e 56 74
e 56 81
e 56 104
e 56 135
e 56 136
e 56 148
e 56 150
e 56 157
e 56 174
e 56 188
e 56 211
e 57 63
e 57 68
e 57 70
e 57 82
e 57 83
e 57 84
e 57 85
e 57 88
e 57 91
e 57 109
e 57 110
e 57 113
e 57 136
e 57 146
e 57 158
e 57 159
e 57 197
e 58 62
e 58 71
e 58 86
e 58 87
e 58 88
e 58 114
e 58 115
e 58 116
e 58 117
e 58 118
e 58 144
e 58 165
e 58 166
e 58 167
e 58 191
e 59 60
e 59 61
e 59 64
e 59 73
e 59 89
e 59 147
e 59 151
e 59 165
e 59 173
e 59 182
e 59 186
e 59 187
e 59 200
e 60 61
e 60 65
e 60 74
e 60 89
e 60 104
e 60 136
e 60 147
e 60 148
e 60 150
e 60 174
e 60 188
e 60 211
e 61 66
e 61 75
e 61 89
e 61 105
e 61 134
e 61 147
e 61 149
e 61 152
e 61 166
e 61 175
e 61 183
e 61 212
e 62 71
e 62 86
e 62 90
e 62 91
e 62 114
e 62 119
e 62 120
e 62 121
e 62 122
e 62 167
e 62 173
e 62 174
e 62 175
e 62 193
e 63 68
e 63 70
e 63 88
e 63 91
e 63 92
e 63 93
e 63 94
e 63 95
e 63 113
e 63 123
e 63 146
e 63 148
e 63 149
e 63 176
e 63 177
e 63 207
e 64 65
e 64 66
e 64 73
e 64 151
e 64 165
e 64 173
e 64 178
e 64 182
e 64 186
e 64 187
e 64 200
e 65 66
e 65 74
e 65 104
e 65 136
e 65 148
e 65 150
e 65 174
e 65 178
e 65 188
e 65 211
e 66 75
e 66 105
e 66 134
e 66 149
e 66 152
e 66 166
e 66 175
e 66 178
e 66 183
e 66 212
e 67 68
e 67 69
e 67 87
e 67 90
e 67 96
e 67 97
e 67 98
e 67 103
e 67 111
e 67 112
e 67 124
e 67 125
e 67 145
e 67 150
e 67 179
e 67 180
e 67 208
e 68 70
e 68 88
e 68 91
e 68 96
e 68 97
e 68 98
e 68 113
e 68 124
e 68 125
e 68 146
e 68 150
e 68 179
e 68 180
e 68 208
e 69 70
e 69 87
e 69 90
e 69 99
e 69 100
e 69 101
e 69 102
e 69 103
e 69 111
e 69 112
e 69 126
e 69 127
e 69 145
e 69 151
e 69 152
e 69 181
e 70 88
e 70 91
e 70 99
e 70 100
e 70 101
e 70 102
e 70 113
e 70 126
e 70 127
e 70 146
e 70 151
e 70 152
e 70 181
e 71 86
e 71 103
e 71 114
e 71 128
e 71 129
e 71 130
e 71 131
e 71 132
e 71 153
e 71 167
e 71 182
e 71 183
e 71 194
e 72 104
e 72 105
e 72 108
e 72 110
e 72 125
e 72 127
e 72 133
e 72 153
e 72 161
e 72 184
e 72 190
e 72 195
e 73 74
e 73 75
e 73 106
e 73 151
e 73 154
e 73 165
e 73 173
e 73 182
e 73 185
e 73 186
e 73 187
e 73 200
e 74 75
e 74 104
e 74 106
e 74 136
e 74 148
e 74 150
e 74 154
e 74 174
e 74 185
e 74 188
e 74 211
e 75 105
e 75 106
e 75 134
e 75 149
e 75 152
e 75 154
e 75 166
e 75 175
e 75 183
e 75 185
e 75 212
e 76 77
e 76 78
e 76 79
e 76 80
e 76 82
e 76 92
e 76 96
e 76 107
e 76 108
e 76 115
e 76 119
e 76 128
e 76 134
e 76 137
e 76 155
e 76 156
e 76 168
e 76 196
e 76 201
e 77 78
e 77 79
e 77 80
e 77 83
e 77 97
e 77 107
e 77 108
e 77 116
e 77 120
e 77 129
e 77 134
e 77 138
e 77 141
e 77 155
e 77 156
e 77 169
e 77 196
e 78 79
e 78 80
e 78 94
e 78 100
e 78 107
e 78 108
e 78 117
e 78 131
e 78 134
e 78 140
e 78 142
e 78 155
e 78 156
e 78 196
e 78 202
e 79 80
e 79 101
e 79 107
e 79 108
e 79 118
e 79 121
e 79 132
e 79 134
e 79 155
e 79 156
e 79 163
e 79 171
e 79 196
e 79 203
e 80 85
e 80 95
e 80 102
e 80 107
e 80 108
e 80 122
e 80 134
e 80 143
e 80 155
e 80 156
e 80 164
e 80 172
e 80 196
e 80 204
e 81 135
e 81 155
e 81 157
e 81 158
e 81 176
e 81 179
e 81 181
e 81 191
e 81 194
e 81 199
e 81 205
e 82 83
e 82 84
e 82 85
e 82 92
e 82 96
e 82 109
e 82 110
e 82 115
e 82 119
e 82 128
e 82 136
e 82 137
e 82 158
e 82 159
e 82 168
e 82 197
e 82 201
e 83 84
e 83 85
e 83 97
e 83 109
e 83 110
e 83 116
e 83 120
e 83 129
e 83 136
e 83 138
e 83 141
e 83 158
e 83 159
e 83 169
e 83 197
e 84 85
e 84 93
e 84 98
e 84 99
e 84 109
e 84 110
e 84 130
e 84 136
e 84 139
e 84 158
e 84 159
e 84 162
e 84 170
e 84 197
e 85 95
e 85 102
e 85 109
e 85 110
e 85 122
e 85 136
e 85 143
e 85 158
e 85 159
e 85 164
e 85 172
e 85 197
e 85 204
e 86 111
e 86 114
e 86 137
e 86 138
e 86 139
e 86 140
e 86 160
e 86 167
e 86 186
e 86 198
e 86 209
e 87 88
e 87 90
e 87 103
e 87 111
e 87 112
e 87 115
e 87 116
e 87 117
e 87 118
e 87 144
e 87 145
e 87 165
e 87 166
e 87 191
e 88 91
e 88 113
e 88 115
e 88 116
e 88 117
e 88 118
e 88 144
e 88 146
e 88 165
e 88 166
e 88 191
e 89 106
e 89 133
e 89 147
e 89 156
e 89 159
e 89 177
e 89 180
e 89 193
e 89 198
e 89 206
e 90 91
e 90 103
e 90 111
e 90 112
e 90 119
e 90 120
e 90 121
e 90 122
e 90 145
e 90 173
e 90 174
e 90 175
e 90 193
e 91 113
e 91 119
e 91 120
e 91 121
e 91 122
e 91 146
e 91 173
e 91 174
e 91 175
e 91 193
e 92 93
e 92 94
e 92 95
e 92 96
e 92 115
e 92 119
e 92 123
e 92 128
e 92 137
e 92 148
e 92 149
e 92 168
e 92 176
e 92 177
e 92 201
e 92 207
e 93 94
e 93 95
e 93 98
e 93 99
e 93 123
e 93 130
e 93 139
e 93 148
e 93 149
e 93 162
e 93 170
e 93 176
e 93 177
e 93 207
e 94 95
e 94 100
e 94 117
e 94 123
e 94 131
e 94 140
e 94 142
e 94 148
e 94 149
e 94 176
e 94 177
e 94 202
e 94 207
e 95 102
e 95 122
e 95 123
e 95 143
e 95 148
e 95 149
e 95 164
e 95 172
e 95 176
e 95 177
e 95 204
e 95 207
e 96 97
e 96 98
e 96 115
e 96 119
e 96 124
e 96 125
e 96 128
e 96 137
e 96 150
e 96 168
e 96 179
e 96 180
e 96 201
e 96 208
e 97 98
e 97 116
e 97 120
e 97 124
e 97 125
e 97 129
e 97 138
e 97 141
e 97 150
e 97 169
e 97 179
e 97 180
e 97 208
e 98 99
e 98 124
e 98 125
e 98 130
e 98 139
e 98 150
e 98 162
e 98 170
e 98 179
e 98 180
e 98 208
e 99 100
e 99 101
e 99 102
e 99 126
e 99 127
e 99 130
e 99 139
e 99 151
e 99 152
e 99 162
e 99 170
e 99 181
e 100 101
e 100 102
e 100 117
e 100 126
e 100 127
e 100 131
e 100 140
e 100 142
e 100 151
e 100 152
e 100 181
e 100 202
e 101 102
e 101 118
e 101 121
e 101 126
e 101 127
e 101 132
e 101 151
e 101 152
e 101 163
e 101 171
e 101 181
e 101 203
e 102 122
e 102 126
e 102 127
e 102 143
e 102 151
e 102 152
e 102 164
e 102 172
e 102 181
e 102 204
e 103 111
e 103 112
e 103 128
e 103 129
e 103 130
e 103 131
e 103 132
e 103 145
e 103 153
e 103 182
e 103 183
e 103 194
e 104 105
e 104 133
e 104 136
e 104 148
e 104 150
e 104 174
e 104 184
e 104 188
e 104 195
e 104 211
e 105 133
e 105 134
e 105 149
e 105 152
e 105 166
e 105 175
e 105 183
e 105 184
e 105 195
e 105 212
e 106 133
e 106 154
e 106 156
e 106 159
e 106 177
e 106 180
e 106 185
e 106 193
e 106 198
e 106 206
e 107 108
e 107 109
e 107 123
e 107 124
e 107 126
e 107 134
e 107 144
e 107 155
e 107 156
e 107 160
e 107 189
e 107 192
e 107 196
e 108 110
e 108 125
e 108 127
e 108 134
e 108 153
e 108 155
e 108 156
e 108 161
e 108 190
e 108 196
e 109 110
e 109 123
e 109 124
e 109 126
e 109 136
e 109 144
e 109 158
e 109 159
e 109 160
e 109 189
e 109 192
e 109 197
e 110 125
e 110 127
e 110 136
e 110 153
e 110 158
e 110 159
e 110 161
e 110 190
e 110 197
e 111 112
e 111 137
e 111 138
e 111 139
e 111 140
e 111 145
e 111 160
e 111 186
e 111 198
e 111 209
e 112 113
e 112 141
e 112 142
e 112 143
e 112 145
e 112 161
e 112 187
e 112 188
e 112 199
e 112 210
e 113 141
e 113 142
e 113 143
e 113 146
e 113 161
e 113 187
e 113 188
e 113 199
e 113 210
e 114 162
e 114 163
e 114 164
e 114 167
e 114 189
e 114 190
e 114 200
e 114 205
e 114 206
e 115 116
e 115 117
e 115 118
e 115 119
e 115 128
e 115 137
e 115 144
e 115 165
e 115 166
e 115 168
e 115 191
e 115 201
e 116 117
e 116 118
e 116 120
e 116 129
e 116 138
e 116 141
e 116 144
e 116 165
e 116 166
e 116 169
e 116 191
e 117 118
e 117 131
e 117 140
e 117 142
e 117 144
e 117 165
e 117 166
e 117 191
e 117 202
e 118 121
e 118 132
e 118 144
e 118 163
e 118 165
e 118 166
e 118 171
e 118 191
e 118 203
e 119 120
e 119 121
e 119 122
e 119 128
e 119 137
e 119 168
e 119 173
e 119 174
e 119 175
e 119 193
e 119 201
e 120 121
e 120 122
e 120 129
e 120 138
e 120 141
e 120 169
e 120 173
e 120 174
e 120 175
e 120 193
e 121 122
e 121 132
e 121 163
e 121 171
e 121 173
e 121 174
e 121 175
e 121 193
e 121 203
e 122 143
e 122 164
e 122 172
e 122 173
e 122 174
e 122 175
e 122 193
e 122 204
e 123 124
e 123 126
e 123 144
e 123 148
e 123 149
e 123 160
e 123 176
e 123 177
e 123 189
e 123 192
e 123 207
e 124 125
e 124 126
e 124 144
e 124 150
e 124 160
e 124 179
e 124 180
e 124 189
e 124 192
e 124 208
e 125 127
e 125 150
e 125 153
e 125 161
e 125 179
e 125 180
e 125 190
e 125 208
e 126 127
e 126 144
e 126 151
e 126 152
e 126 160
e 126 181
e 126 189
e 126 192
e 127 151
e 127 152
e 127 153
e 127 161
e 127 181
e 127 190
e 128 129
e 128 130
e 128 131
e 128 132
e 128 137
e 128 153
e 128 168
e 128 182
e 128 183
e 128 194
e 128 201
e 129 130
e 129 131
e 129 132
e 129 138
e 129 141
e 129 153
e 129 169
e 129 182
e 129 183
e 129 194
e 130 131
e 130 132
e 130 139
e 130 153
e 130 162
e 130 170
e 130 182
e 130 183
e 130 194
e 131 132
e 131 140
e 131 142
e 131 153
e 131 182
e 131 183
e 131 194
e 131 202
e 132 153
e 132 163
e 132 171
e 132 182
e 132 183
e 132 194
e 132 203
e 133 156
e 133 159
e 133 177
e 133 180
e 133 184
e 133 193
e 133 195
e 133 198
e 133 206
e 134 149
e 134 152
e 134 155
e 134 156
e 134 166
e 134 175
e 134 183
e 134 196
e 134 212
e 135 147
e 135 154
e 135 157
e 135 184
e 135 196
e 135 197
e 135 209
e 135 210
e 136 148
e 136 150
e 136 158
e 136 159
e 136 174
e 136 188
e 136 197
e 136 211
e 137 138
e 137 139
e 137 140
e 137 160
e 137 168
e 137 186
e 137 198
e 137 201
e 137 209
e 138 139
e 138 140
e 138 141
e 138 160
e 138 169
e 138 186
e 138 198
e 138 209
e 139 140
e 139 160
e 139 162
e 139 170
e 139 186
e 139 198
e 139 209
e 140 142
e 140 160
e 140 186
e 140 198
e 140 202
e 140 209
e 141 142
e 141 143
e 141 161
e 141 169
e 141 187
e 141 188
e 141 199
e 141 210
e 142 143
e 142 161
e 142 187
e 142 188
e 142 199
e 142 202
e 142 210
e 143 161
e 143 164
e 143 172
e 143 187
e 143 188
e 143 199
e 143 204
e 143 210
e 144 160
e 144 165
e 144 166
e 144 189
e 144 191
e 144 192
e 145 146
e 145 168
e 145 169
e 145 170
e 145 171
e 145 172
e 145 192
e 145 213
e 146 168
e 146 169
e 146 170
e 146 171
e 146 172
e 146 192
e 146 213
e 147 154
e 147 184
e 147 196
e 147 197
e 147 209
e 147 210
e 148 149
e 148 150
e 148 174
e 148 176
e 148 177
e 148 188
e 148 207
e 148 211
e 149 152
e 149 166
e 149 175
e 149 176
e 149 177
e 149 183
e 149 207
e 149 212
e 150 174
e 150 179
e 150 180
e 150 188
e 150 208
e 150 211
e 151 152
e 151 165
e 151 173
e 151 181
e 151 182
e 151 186
e 151 187
e 151 200
e 152 166
e 152 175
e 152 181
e 152 183
e 152 212
e 153 161
e 153 182
e 153 183
e 153 190
e 153 194
e 154 184
e 154 185
e 154 196
e 154 197
e 154 209
e 154 210
e 155 156
e 155 158
e 155 176
e 155 179
e 155 181
e 155 191
e 155 194
e 155 196
e 155 199
e 155 205
e 156 159
e 156 177
e 156 180
e 156 193
e 156 196
e 156 198
e 156 206
e 157 178
e 157 185
e 157 195
e 157 207
e 157 208
e 157 213
e 158 159
e 158 176
e 158 179
e 158 181
e 158 191
e 158 194
e 158 197
e 158 199
e 158 205
e 159 177
e 159 180
e 159 193
e 159 197
e 159 198
e 159 206
e 160 186
e 160 189
e 160 192
e 160 198
e 160 209
e 161 187
e 161 188
e 161 190
e 161 199
e 161 210
e 162 163
e 162 164
e 162 170
e 162 189
e 162 190
e 162 200
e 162 205
e 162 206
e 163 164
e 163 171
e 163 189
e 163 190
e 163 200
e 163 203
e 163 205
e 163 206
e 164 172
e 164 189
e 164 190
e 164 200
e 164 204
e 164 205
e 164 206
e 165 166
e 165 173
e 165 182
e 165 186
e 165 187
e 165 191
e 165 200
e 166 175
e 166 183
e 166 191
e 166 212
e 167 201
e 167 202
e 167 203
e 167 204
e 167 211
e 167 212
e 168 169
e 168 170
e 168 171
e 168 172
e 168 192
e 168 201
e 168 213
e 169 170
e 169 171
e 169 172
e 169 192
e 169 213
e 170 171
e 170 172
e 170 192
e 170 213
e 171 172
e 171 192
e 171 203
e 171 213
e 172 192
e 172 204
e 172 213
e 173 174
e 173 175
e 173 182
e 173 186
e 173 187
e 173 193
e 173 200
e 174 175
e 174 188
e 174 193
e 174 211
e 175 183
e 175 193
e 175 212
e 176 177
e 176 179
e 176 181
e 176 191
e 176 194
e 176 199
e 176 205
e 176 207
e 177 180
e 177 193
e 177 198
e 177 206
e 177 207
e 178 185
e 178 195
e 178 207
e 178 208
e 178 213
e 179 180
e 179 181
e 179 191
e 179 194
e 179 199
e 179 205
e 179 208
e 180 193
e 180 198
e 180 206
e 180 208
e 181 191
e 181 194
e 181 199
e 181 205
e 182 183
e 182 186
e 182 187
e 182 194
e 182 200
e 183 194
e 183 212
e 184 195
e 184 196
e 184 197
e 184 209
e 184 210
e 185 195
e 185 207
e 185 208
e 185 213
e 186 187
e 186 198
e 186 200
e 186 209
e 187 188
e 187 199
e 187 200
e 187 210
e 188 199
e 188 210
e 188 211
e 189 190
e 189 192
e 189 200
e 189 205
e 189 206
e 190 200
e 190 205
e 190 206
e 191 194
e 191 199
e 191 205
e 192 213
e 193 198
e 193 206
e 194 199
e 194 205
e 195 207
e 195 208
e 195 213
e 196 197
e 196 209
e 196 210
e 197 209
e 197 210
e 198 206
e 198 209
e 199 205
e 199 210
e 200 205
e 200 206
e 201 202
e 201 203
e 201 204
e 201 211
e 201 212
e 202 203
e 202 204
e 202 211
e 202 212
e 203 204
e 203 211
e 203 212
e 204 211
e 204 212
e 205 206
e 207 208
e 207 213
e 208 213
e 209 210
e 211 212
